
  22   10
  10   10   10   10   10   10   10   10   10   10

   0   0   0   0   0   0   0   0   0   0   0   5 2 3 4 5 7 
   5  10  10  10  10  10  10  10  10  10  10   6 14 13 11 10 9 8 
   4  10  10  10  10  10  10  10  10  10  10   3 13 11 6 
   1  10  10  10  10  10  10  10  10  10  10   5 17 14 13 11 9 
   3  10  10  10  10  10  10  10  10  10  10   5 18 14 13 11 8 
   2  10  10  10  10  10  10  10  10  10  10   3 14 9 8 
   2  10  10  10  10  10  10  10  10  10  10   3 17 12 9 
   1  10  10  10  10  10  10  10  10  10  10   4 21 17 16 12 
   3  10  10  10  10  10  10  10  10  10  10   4 21 18 16 15 
   8  10  10  10  10  10  10  10  10  10  10   3 17 16 12 
   8  10  10  10  10  10  10  10  10  10  10   1 12 
   3  10  10  10  10  10  10  10  10  10  10   2 20 15 
   5  10  10  10  10  10  10  10  10  10  10   2 20 15 
   8  10  10  10  10  10  10  10  10  10  10   1 15 
   8  10  10  10  10  10  10  10  10  10  10   1 19 
   1  10  10  10  10  10  10  10  10  10  10   1 20 
   5  10  10  10  10  10  10  10  10  10  10   1 20 
   8  10  10  10  10  10  10  10  10  10  10   1 19 
   4  10  10  10  10  10  10  10  10  10  10   1 22
   3  10  10  10  10  10  10  10  10  10  10   1 22
   2  10  10  10  10  10  10  10  10  10  10   1 22
   0   0   0   0   0   0   0   0   0   0   0   0 
